NAME : st70.tour
COMMENT : Held-Karp solution of st70 (length 675)
TYPE : TOUR
DIMENSION : 70
TOUR_SECTION
1
23
16
47
37
58
50
51
56
65
64
11
48
67
54
62
33
21
34
12
60
52
10
5
53
6
41
43
17
9
40
61
39
45
25
46
27
68
44
30
20
14
28
49
55
26
8
3
32
42
18
4
2
7
19
24
15
57
63
66
22
59
38
31
69
35
70
13
29
36
-1
EOF
